param n := 120;
param c := 1500
param : V : p w :=
   0	  48	  38
   1	 110	 100
   2	  70	  60
   3	  52	  42
   4	  30	  20
   5	  79	  69
   6	  34	  24
   7	  33	  23
   8	 102	  92
   9	  42	  32
  10	  94	  84
  11	  46	  36
  12	  75	  65
  13	  94	  84
  14	  44	  34
  15	  78	  68
  16	  74	  64
  17	  43	  33
  18	  79	  69
  19	  37	  27
  20	  57	  47
  21	  31	  21
  22	  95	  85
  23	  98	  88
  24	  69	  59
  25	  71	  61
  26	  60	  50
  27	  63	  53
  28	  47	  37
  29	  85	  75
  30	  74	  64
  31	  94	  84
  32	  84	  74
  33	  67	  57
  34	  93	  83
  35	  38	  28
  36	  41	  31
  37	 107	  97
  38	  71	  61
  39	  46	  36
  40	  56	  46
  41	  47	  37
  42	 106	  96
  43	  90	  80
  44	  63	  53
  45	  61	  51
  46	  78	  68
  47	 100	  90
  48	  74	  64
  49	  91	  81
  50	  76	  66
  51	  77	  67
  52	  90	  80
  53	  47	  37
  54	 102	  92
  55	  77	  67
  56	  74	  64
  57	  41	  31
  58	 104	  94
  59	  55	  45
  60	  90	  80
  61	  38	  28
  62	  86	  76
  63	  39	  29
  64	  74	  64
  65	  48	  38
  66	  58	  48
  67	  50	  40
  68	  39	  29
  69	  54	  44
  70	  91	  81
  71	  45	  35
  72	  61	  51
  73	  58	  48
  74	  77	  67
  75	  34	  24
  76	  56	  46
  77	  48	  38
  78	  86	  76
  79	  32	  22
  80	  40	  30
  81	  77	  67
  82	  55	  45
  83	  51	  41
  84	  39	  29
  85	  51	  41
  86	  89	  79
  87	  31	  21
  88	  35	  25
  89	 100	  90
  90	  72	  62
  91	  44	  34
  92	  83	  73
  93	  60	  50
  94	  89	  79
  95	  76	  66
  96	  69	  59
  97	  52	  42
  98	 100	  90
  99	  89	  79
 100	  80	  70
 101	  76	  66
 102	  90	  80
 103	  45	  35
 104	  72	  62
 105	 108	  98
 106	 107	  97
 107	  47	  37
 108	  42	  32
 109	  85	  75
 110	 101	  91
 111	 101	  91
 112	  58	  48
 113	  36	  26
 114	  33	  23
 115	  42	  32
 116	 110	 100
 117	  56	  46
 118	  39	  29
 119	  36	  26
;

set E :=
   0	   2
   0	   5
   0	  13
   0	  18
   0	  22
   0	  23
   0	  28
   0	  33
   0	  35
   0	  37
   0	  48
   0	  49
   0	  50
   0	  53
   0	  56
   0	  58
   0	  61
   0	  62
   0	  63
   0	  65
   0	  67
   0	  72
   0	  76
   0	  78
   0	  81
   0	  83
   0	  85
   0	  90
   0	  91
   0	  94
   0	  96
   0	  97
   0	 100
   0	 109
   0	 115
   0	 116
   0	 117
   0	 119
   1	   2
   1	   9
   1	  10
   1	  14
   1	  25
   1	  28
   1	  29
   1	  31
   1	  32
   1	  35
   1	  36
   1	  44
   1	  50
   1	  53
   1	  55
   1	  67
   1	  68
   1	  72
   1	  73
   1	  78
   1	  79
   1	  82
   1	  90
   1	  94
   1	  99
   1	 102
   1	 105
   1	 108
   1	 109
   1	 110
   1	 111
   1	 114
   1	 115
   2	  15
   2	  20
   2	  21
   2	  22
   2	  25
   2	  28
   2	  30
   2	  32
   2	  36
   2	  42
   2	  43
   2	  45
   2	  51
   2	  53
   2	  55
   2	  57
   2	  59
   2	  61
   2	  62
   2	  63
   2	  66
   2	  67
   2	  70
   2	  84
   2	  85
   2	  86
   2	  88
   2	  90
   2	  91
   2	  93
   2	  95
   2	  96
   2	  99
   2	 102
   2	 103
   2	 105
   2	 109
   2	 111
   2	 112
   3	   4
   3	   8
   3	   9
   3	  10
   3	  18
   3	  21
   3	  26
   3	  28
   3	  33
   3	  34
   3	  36
   3	  42
   3	  44
   3	  46
   3	  47
   3	  57
   3	  59
   3	  62
   3	  63
   3	  65
   3	  66
   3	  67
   3	  70
   3	  72
   3	  74
   3	  77
   3	  78
   3	  84
   3	  85
   3	  90
   3	  91
   3	  92
   3	  93
   3	  97
   3	 105
   3	 111
   3	 114
   3	 117
   3	 118
   4	  11
   4	  16
   4	  19
   4	  25
   4	  27
   4	  33
   4	  40
   4	  43
   4	  44
   4	  45
   4	  46
   4	  54
   4	  56
   4	  57
   4	  59
   4	  66
   4	  67
   4	  68
   4	  77
   4	  79
   4	  80
   4	  84
   4	  91
   4	  97
   4	  98
   4	 101
   4	 105
   4	 109
   4	 111
   4	 117
   4	 119
   5	   7
   5	   8
   5	  11
   5	  14
   5	  22
   5	  23
   5	  30
   5	  31
   5	  36
   5	  39
   5	  45
   5	  46
   5	  53
   5	  55
   5	  58
   5	  63
   5	  67
   5	  68
   5	  71
   5	  74
   5	  76
   5	  79
   5	  80
   5	  85
   5	  86
   5	  88
   5	  89
   5	  90
   5	  96
   5	 102
   5	 103
   5	 105
   5	 106
   5	 108
   5	 110
   5	 111
   5	 113
   5	 114
   6	   7
   6	  12
   6	  21
   6	  22
   6	  23
   6	  29
   6	  33
   6	  38
   6	  42
   6	  43
   6	  47
   6	  51
   6	  54
   6	  57
   6	  63
   6	  67
   6	  68
   6	  71
   6	  73
   6	  78
   6	  79
   6	  81
   6	  83
   6	  85
   6	  86
   6	  90
   6	  91
   6	  92
   6	  94
   6	  95
   6	  97
   6	  98
   6	 101
   6	 102
   6	 103
   6	 119
   7	   8
   7	  10
   7	  12
   7	  14
   7	  16
   7	  28
   7	  29
   7	  38
   7	  49
   7	  57
   7	  59
   7	  65
   7	  66
   7	  68
   7	  72
   7	  75
   7	  79
   7	  81
   7	  83
   7	  87
   7	  88
   7	  90
   7	  92
   7	  93
   7	  95
   7	  97
   7	  99
   7	 101
   7	 106
   7	 108
   7	 114
   7	 116
   7	 117
   8	  16
   8	  20
   8	  23
   8	  27
   8	  28
   8	  29
   8	  30
   8	  31
   8	  41
   8	  47
   8	  49
   8	  54
   8	  57
   8	  58
   8	  62
   8	  64
   8	  66
   8	  68
   8	  69
   8	  70
   8	  75
   8	  82
   8	  83
   8	  88
   8	  92
   8	 101
   8	 107
   8	 114
   8	 118
   8	 119
   9	  10
   9	  12
   9	  16
   9	  22
   9	  23
   9	  39
   9	  43
   9	  49
   9	  54
   9	  58
   9	  60
   9	  66
   9	  75
   9	  76
   9	  77
   9	  78
   9	  79
   9	  80
   9	  81
   9	  84
   9	  86
   9	  88
   9	  89
   9	  93
   9	  96
   9	 104
   9	 105
   9	 112
   9	 115
   9	 117
  10	  12
  10	  17
  10	  26
  10	  28
  10	  32
  10	  33
  10	  34
  10	  35
  10	  36
  10	  38
  10	  39
  10	  41
  10	  47
  10	  59
  10	  68
  10	  70
  10	  71
  10	  74
  10	  76
  10	  77
  10	  87
  10	  92
  10	  99
  10	 103
  10	 104
  10	 117
  10	 118
  11	  20
  11	  26
  11	  32
  11	  33
  11	  36
  11	  37
  11	  40
  11	  43
  11	  44
  11	  47
  11	  49
  11	  55
  11	  58
  11	  59
  11	  60
  11	  62
  11	  63
  11	  64
  11	  68
  11	  69
  11	  71
  11	  76
  11	  78
  11	  82
  11	  84
  11	  86
  11	  87
  11	  89
  11	  91
  11	  92
  11	 104
  11	 105
  11	 109
  11	 113
  11	 116
  11	 119
  12	  14
  12	  17
  12	  18
  12	  20
  12	  24
  12	  27
  12	  43
  12	  45
  12	  48
  12	  49
  12	  51
  12	  54
  12	  59
  12	  63
  12	  64
  12	  66
  12	  72
  12	  74
  12	  76
  12	  78
  12	  82
  12	  86
  12	  90
  12	  92
  12	  93
  12	  94
  12	 100
  12	 102
  12	 103
  12	 104
  12	 107
  12	 108
  12	 110
  12	 111
  12	 114
  12	 115
  12	 116
  12	 117
  13	  16
  13	  19
  13	  20
  13	  21
  13	  25
  13	  27
  13	  29
  13	  31
  13	  32
  13	  34
  13	  41
  13	  42
  13	  43
  13	  44
  13	  46
  13	  47
  13	  49
  13	  53
  13	  56
  13	  57
  13	  59
  13	  63
  13	  64
  13	  65
  13	  69
  13	  80
  13	  85
  13	  86
  13	  90
  13	  93
  13	  96
  13	 101
  13	 103
  13	 108
  13	 112
  13	 113
  13	 115
  13	 117
  13	 118
  14	  15
  14	  16
  14	  21
  14	  23
  14	  24
  14	  25
  14	  26
  14	  28
  14	  33
  14	  36
  14	  43
  14	  44
  14	  51
  14	  55
  14	  56
  14	  61
  14	  62
  14	  63
  14	  66
  14	  67
  14	  70
  14	  72
  14	  77
  14	  78
  14	  79
  14	  81
  14	  83
  14	  88
  14	  94
  14	  95
  14	 101
  14	 104
  14	 106
  14	 107
  14	 112
  14	 114
  14	 115
  14	 118
  15	  18
  15	  20
  15	  21
  15	  22
  15	  24
  15	  26
  15	  28
  15	  30
  15	  32
  15	  35
  15	  38
  15	  40
  15	  42
  15	  50
  15	  56
  15	  58
  15	  61
  15	  62
  15	  63
  15	  65
  15	  66
  15	  68
  15	  72
  15	  77
  15	  82
  15	  83
  15	  85
  15	  86
  15	  90
  15	  92
  15	  96
  15	  97
  15	  98
  15	 101
  15	 108
  15	 109
  15	 112
  15	 113
  15	 118
  16	  17
  16	  18
  16	  21
  16	  23
  16	  25
  16	  28
  16	  29
  16	  33
  16	  35
  16	  39
  16	  40
  16	  42
  16	  45
  16	  52
  16	  57
  16	  60
  16	  62
  16	  63
  16	  68
  16	  72
  16	  73
  16	  74
  16	  77
  16	  82
  16	  83
  16	  87
  16	  89
  16	  98
  16	  99
  16	 100
  16	 103
  16	 108
  16	 112
  17	  18
  17	  23
  17	  26
  17	  27
  17	  34
  17	  41
  17	  43
  17	  45
  17	  53
  17	  54
  17	  56
  17	  57
  17	  58
  17	  60
  17	  63
  17	  64
  17	  65
  17	  69
  17	  71
  17	  72
  17	  76
  17	  78
  17	  83
  17	  84
  17	  87
  17	  88
  17	  89
  17	  90
  17	  92
  17	  95
  17	  97
  17	  99
  17	 102
  17	 104
  17	 106
  17	 107
  17	 112
  17	 113
  17	 118
  17	 119
  18	  19
  18	  21
  18	  22
  18	  23
  18	  27
  18	  28
  18	  29
  18	  30
  18	  36
  18	  38
  18	  40
  18	  47
  18	  49
  18	  50
  18	  54
  18	  60
  18	  63
  18	  67
  18	  68
  18	  89
  18	  92
  18	  96
  18	  97
  18	  98
  18	 104
  18	 107
  18	 109
  18	 111
  18	 113
  18	 114
  18	 119
  19	  21
  19	  27
  19	  28
  19	  29
  19	  30
  19	  32
  19	  34
  19	  37
  19	  38
  19	  53
  19	  54
  19	  62
  19	  66
  19	  68
  19	  73
  19	  80
  19	  85
  19	  86
  19	  87
  19	  89
  19	  92
  19	  93
  19	  95
  19	  96
  19	  98
  19	 100
  19	 102
  19	 105
  19	 113
  20	  26
  20	  28
  20	  30
  20	  32
  20	  33
  20	  34
  20	  36
  20	  39
  20	  45
  20	  57
  20	  65
  20	  68
  20	  71
  20	  73
  20	  74
  20	  76
  20	  77
  20	  79
  20	  81
  20	  84
  20	  95
  20	  99
  20	 103
  20	 110
  20	 112
  20	 116
  20	 117
  21	  33
  21	  34
  21	  41
  21	  43
  21	  44
  21	  48
  21	  49
  21	  52
  21	  54
  21	  57
  21	  58
  21	  59
  21	  61
  21	  64
  21	  65
  21	  67
  21	  74
  21	  80
  21	  85
  21	  88
  21	  93
  21	  96
  21	  97
  21	 101
  22	  23
  22	  24
  22	  28
  22	  34
  22	  38
  22	  44
  22	  45
  22	  47
  22	  60
  22	  67
  22	  69
  22	  74
  22	  75
  22	  76
  22	  78
  22	  79
  22	  82
  22	  85
  22	  89
  22	  96
  22	  97
  22	  98
  22	  99
  22	 102
  22	 103
  22	 107
  22	 111
  22	 112
  22	 114
  23	  25
  23	  28
  23	  30
  23	  32
  23	  33
  23	  36
  23	  37
  23	  38
  23	  39
  23	  40
  23	  44
  23	  45
  23	  46
  23	  49
  23	  50
  23	  57
  23	  59
  23	  60
  23	  63
  23	  66
  23	  67
  23	  71
  23	  72
  23	  77
  23	  79
  23	  87
  23	  88
  23	  89
  23	  94
  23	  95
  23	  99
  23	 103
  23	 109
  23	 110
  24	  32
  24	  37
  24	  38
  24	  43
  24	  45
  24	  47
  24	  48
  24	  53
  24	  54
  24	  55
  24	  58
  24	  59
  24	  61
  24	  62
  24	  64
  24	  68
  24	  74
  24	  82
  24	  83
  24	  85
  24	  98
  24	 103
  24	 105
  24	 109
  24	 113
  25	  26
  25	  30
  25	  31
  25	  38
  25	  40
  25	  41
  25	  44
  25	  51
  25	  59
  25	  61
  25	  63
  25	  64
  25	  65
  25	  66
  25	  67
  25	  72
  25	  76
  25	  77
  25	  79
  25	  83
  25	  89
  25	  91
  25	  92
  25	  93
  25	 102
  25	 113
  25	 114
  25	 118
  26	  27
  26	  28
  26	  29
  26	  32
  26	  37
  26	  38
  26	  41
  26	  43
  26	  45
  26	  46
  26	  49
  26	  57
  26	  58
  26	  59
  26	  62
  26	  66
  26	  71
  26	  72
  26	  73
  26	  84
  26	  85
  26	  87
  26	  88
  26	  93
  26	  94
  26	  96
  26	  97
  26	  99
  26	 106
  26	 111
  26	 113
  26	 119
  27	  29
  27	  31
  27	  34
  27	  35
  27	  37
  27	  44
  27	  53
  27	  55
  27	  64
  27	  70
  27	  72
  27	  75
  27	  76
  27	  77
  27	  80
  27	  81
  27	  83
  27	  84
  27	  87
  27	  91
  27	  93
  27	  94
  27	 102
  27	 103
  27	 108
  27	 112
  27	 117
  28	  29
  28	  33
  28	  34
  28	  35
  28	  39
  28	  44
  28	  48
  28	  56
  28	  59
  28	  60
  28	  71
  28	  74
  28	  82
  28	  83
  28	  87
  28	  90
  28	  99
  28	 103
  28	 104
  28	 107
  28	 109
  28	 111
  28	 115
  29	  32
  29	  34
  29	  39
  29	  44
  29	  45
  29	  52
  29	  54
  29	  55
  29	  59
  29	  62
  29	  66
  29	  67
  29	  76
  29	  77
  29	  78
  29	  79
  29	  89
  29	  93
  29	  95
  29	 100
  29	 101
  29	 105
  29	 107
  29	 108
  29	 109
  29	 114
  29	 118
  30	  36
  30	  38
  30	  39
  30	  43
  30	  45
  30	  51
  30	  59
  30	  62
  30	  65
  30	  68
  30	  69
  30	  71
  30	  72
  30	  78
  30	  80
  30	  82
  30	  85
  30	  92
  30	  96
  30	  99
  30	 101
  30	 106
  30	 107
  30	 108
  30	 112
  30	 113
  31	  32
  31	  36
  31	  37
  31	  38
  31	  44
  31	  50
  31	  53
  31	  56
  31	  60
  31	  61
  31	  66
  31	  67
  31	  72
  31	  73
  31	  91
  31	  92
  31	  97
  31	 100
  31	 102
  31	 106
  31	 107
  31	 113
  31	 114
  31	 115
  31	 119
  32	  35
  32	  36
  32	  37
  32	  39
  32	  40
  32	  44
  32	  45
  32	  50
  32	  56
  32	  57
  32	  60
  32	  62
  32	  63
  32	  64
  32	  66
  32	  72
  32	  75
  32	  80
  32	  88
  32	  92
  32	  93
  32	 101
  32	 103
  32	 104
  32	 108
  32	 112
  32	 117
  33	  34
  33	  37
  33	  38
  33	  40
  33	  45
  33	  47
  33	  49
  33	  50
  33	  51
  33	  54
  33	  56
  33	  57
  33	  72
  33	  76
  33	  81
  33	  83
  33	  86
  33	  87
  33	  89
  33	  90
  33	  91
  33	  93
  33	  98
  33	 107
  33	 111
  33	 112
  33	 117
  34	  35
  34	  36
  34	  39
  34	  65
  34	  68
  34	  72
  34	  73
  34	  74
  34	  75
  34	  76
  34	  78
  34	  80
  34	  82
  34	  84
  34	  85
  34	  86
  34	  87
  34	  95
  34	  98
  34	  99
  34	 103
  34	 104
  34	 105
  34	 110
  34	 113
  34	 114
  34	 115
  34	 117
  35	  40
  35	  43
  35	  51
  35	  53
  35	  54
  35	  55
  35	  56
  35	  57
  35	  61
  35	  67
  35	  69
  35	  74
  35	  80
  35	  83
  35	  84
  35	  85
  35	  94
  35	 100
  35	 101
  35	 103
  35	 108
  35	 109
  35	 113
  35	 117
  36	  50
  36	  52
  36	  53
  36	  61
  36	  65
  36	  66
  36	  72
  36	  77
  36	  79
  36	  82
  36	  95
  36	  99
  36	 100
  36	 102
  36	 107
  36	 108
  36	 109
  36	 111
  36	 113
  36	 114
  36	 116
  36	 119
  37	  39
  37	  43
  37	  46
  37	  54
  37	  56
  37	  58
  37	  59
  37	  65
  37	  67
  37	  69
  37	  72
  37	  74
  37	  75
  37	  82
  37	  89
  37	  95
  37	  99
  37	 109
  37	 112
  37	 114
  37	 119
  38	  39
  38	  47
  38	  53
  38	  55
  38	  62
  38	  64
  38	  66
  38	  69
  38	  73
  38	  84
  38	  87
  38	  94
  38	  95
  38	  99
  38	 100
  38	 106
  38	 107
  38	 108
  38	 112
  38	 115
  38	 117
  38	 118
  39	  41
  39	  44
  39	  48
  39	  50
  39	  51
  39	  53
  39	  57
  39	  61
  39	  62
  39	  64
  39	  71
  39	  74
  39	  77
  39	  78
  39	  91
  39	  93
  39	  98
  39	 100
  39	 108
  39	 109
  39	 113
  39	 115
  39	 119
  40	  44
  40	  51
  40	  54
  40	  56
  40	  57
  40	  63
  40	  64
  40	  68
  40	  69
  40	  72
  40	  75
  40	  78
  40	  83
  40	  90
  40	  92
  40	  93
  40	  95
  40	  96
  40	  97
  40	  98
  40	 101
  40	 105
  40	 108
  40	 111
  40	 116
  40	 117
  41	  43
  41	  45
  41	  50
  41	  61
  41	  65
  41	  66
  41	  68
  41	  69
  41	  70
  41	  73
  41	  78
  41	  79
  41	  84
  41	  95
  41	  96
  41	  97
  41	 100
  41	 101
  41	 111
  41	 113
  41	 118
  42	  50
  42	  51
  42	  56
  42	  61
  42	  63
  42	  67
  42	  68
  42	  78
  42	  80
  42	  83
  42	  85
  42	  86
  42	  87
  42	  88
  42	  98
  42	 103
  42	 106
  42	 110
  42	 111
  42	 112
  42	 116
  42	 117
  43	  48
  43	  49
  43	  50
  43	  60
  43	  61
  43	  64
  43	  67
  43	  72
  43	  76
  43	  77
  43	  78
  43	  79
  43	  84
  43	  86
  43	  88
  43	  99
  43	 101
  43	 111
  43	 116
  43	 118
  44	  48
  44	  51
  44	  53
  44	  55
  44	  58
  44	  60
  44	  69
  44	  80
  44	  85
  44	  91
  44	  96
  44	 103
  44	 104
  44	 105
  44	 109
  45	  46
  45	  54
  45	  55
  45	  61
  45	  65
  45	  69
  45	  72
  45	  77
  45	  78
  45	  79
  45	  80
  45	  84
  45	  85
  45	  88
  45	  89
  45	  91
  45	  93
  45	  96
  45	  99
  45	 107
  45	 109
  45	 112
  45	 118
  45	 119
  46	  52
  46	  56
  46	  57
  46	  58
  46	  65
  46	  68
  46	  69
  46	  70
  46	  73
  46	  74
  46	  76
  46	  77
  46	  81
  46	  90
  46	 101
  46	 102
  46	 103
  46	 104
  46	 106
  46	 107
  46	 108
  46	 109
  46	 111
  46	 115
  46	 119
  47	  53
  47	  58
  47	  67
  47	  73
  47	  74
  47	  76
  47	  81
  47	  82
  47	  83
  47	  86
  47	  92
  47	  93
  47	  95
  47	 105
  47	 114
  47	 116
  47	 117
  48	  59
  48	  63
  48	  74
  48	  83
  48	  91
  48	  92
  48	  96
  48	  97
  48	 102
  48	 105
  48	 109
  48	 112
  48	 117
  49	  50
  49	  51
  49	  53
  49	  60
  49	  61
  49	  62
  49	  63
  49	  80
  49	  83
  49	  87
  49	  88
  49	  90
  49	  92
  49	  98
  49	  99
  49	 109
  49	 113
  49	 114
  50	  53
  50	  57
  50	  59
  50	  71
  50	  78
  50	  81
  50	  82
  50	  97
  50	  98
  50	  99
  50	 106
  50	 111
  50	 117
  51	  57
  51	  59
  51	  63
  51	  64
  51	  68
  51	  70
  51	  72
  51	  75
  51	  76
  51	  78
  51	  80
  51	  88
  51	  90
  51	  92
  51	  96
  51	 100
  51	 108
  51	 114
  51	 116
  51	 118
  52	  55
  52	  58
  52	  62
  52	  66
  52	  70
  52	  74
  52	  76
  52	  77
  52	  83
  52	  84
  52	  92
  52	  96
  52	  97
  52	  99
  52	 100
  52	 101
  52	 104
  52	 107
  52	 108
  52	 112
  52	 113
  52	 119
  53	  55
  53	  57
  53	  58
  53	  59
  53	  60
  53	  62
  53	  63
  53	  65
  53	  70
  53	  71
  53	  74
  53	  83
  53	  84
  53	  85
  53	  95
  53	  99
  53	 109
  53	 110
  53	 113
  54	  56
  54	  58
  54	  65
  54	  66
  54	  67
  54	  70
  54	  75
  54	  81
  54	  86
  54	  91
  54	  92
  54	 104
  54	 106
  54	 113
  54	 114
  54	 115
  55	  57
  55	  59
  55	  60
  55	  62
  55	  67
  55	  71
  55	  72
  55	  77
  55	  84
  55	  89
  55	  92
  55	  94
  55	 100
  55	 101
  55	 106
  55	 108
  55	 113
  55	 115
  55	 118
  55	 119
  56	  58
  56	  59
  56	  62
  56	  63
  56	  64
  56	  66
  56	  68
  56	  73
  56	  74
  56	  79
  56	  80
  56	  81
  56	  82
  56	  84
  56	  91
  56	  96
  56	  97
  56	 100
  56	 113
  56	 115
  56	 116
  56	 119
  57	  60
  57	  63
  57	  67
  57	  70
  57	  74
  57	  75
  57	  76
  57	  79
  57	  83
  57	  84
  57	  89
  57	  93
  57	  94
  57	  97
  57	 104
  57	 105
  57	 106
  57	 112
  57	 113
  57	 114
  57	 115
  57	 118
  57	 119
  58	  61
  58	  62
  58	  64
  58	  66
  58	  67
  58	  74
  58	  75
  58	  79
  58	  80
  58	  87
  58	  93
  58	  94
  58	 100
  58	 101
  58	 102
  58	 108
  58	 109
  58	 115
  58	 118
  58	 119
  59	  65
  59	  69
  59	  73
  59	  86
  59	  87
  59	  91
  59	  94
  59	  97
  59	  99
  59	 103
  59	 108
  59	 117
  60	  64
  60	  66
  60	  67
  60	  68
  60	  74
  60	  83
  60	  86
  60	  89
  60	  94
  60	  95
  60	 100
  60	 102
  60	 103
  60	 104
  60	 106
  60	 107
  60	 108
  60	 110
  60	 116
  60	 117
  61	  63
  61	  66
  61	  69
  61	  74
  61	  78
  61	  82
  61	  83
  61	  84
  61	  85
  61	  86
  61	  92
  61	  97
  61	  98
  61	 101
  61	 104
  61	 108
  61	 111
  61	 113
  61	 114
  61	 115
  61	 117
  61	 118
  62	  66
  62	  80
  62	  82
  62	  83
  62	  86
  62	  95
  62	  96
  62	  98
  62	 100
  62	 101
  62	 103
  62	 106
  62	 109
  62	 114
  62	 115
  63	  65
  63	  67
  63	  69
  63	  70
  63	  95
  63	  96
  63	  97
  63	  98
  63	 100
  63	 104
  63	 106
  63	 108
  63	 109
  63	 114
  63	 115
  63	 117
  63	 118
  64	  66
  64	  67
  64	  69
  64	  70
  64	  71
  64	  72
  64	  73
  64	  74
  64	  80
  64	  82
  64	  86
  64	  90
  64	  97
  64	  98
  64	 100
  64	 102
  64	 107
  64	 113
  64	 114
  64	 115
  64	 117
  64	 118
  65	  67
  65	  72
  65	  75
  65	  81
  65	  86
  65	  87
  65	  89
  65	  90
  65	  95
  65	  96
  65	  97
  65	  99
  65	 100
  65	 103
  65	 107
  65	 112
  66	  70
  66	  72
  66	  80
  66	  83
  66	  85
  66	  89
  66	  90
  66	  92
  66	  94
  66	  95
  66	  96
  66	 101
  66	 103
  66	 104
  66	 113
  67	  68
  67	  72
  67	  74
  67	  75
  67	  80
  67	  83
  67	  84
  67	  85
  67	  89
  67	  97
  67	 102
  67	 103
  67	 104
  67	 107
  67	 112
  67	 116
  67	 118
  68	  69
  68	  82
  68	  83
  68	  93
  68	 101
  68	 104
  68	 110
  68	 111
  68	 116
  68	 118
  69	  70
  69	  72
  69	  76
  69	  81
  69	  83
  69	  84
  69	  90
  69	  93
  69	  97
  69	  98
  69	 106
  69	 108
  69	 109
  69	 110
  69	 118
  70	  72
  70	  76
  70	  78
  70	  85
  70	  87
  70	  88
  70	  89
  70	  99
  70	 100
  70	 103
  70	 105
  70	 108
  70	 109
  70	 110
  70	 112
  70	 119
  71	  72
  71	  75
  71	  77
  71	  78
  71	  80
  71	  81
  71	  85
  71	  90
  71	  98
  71	 102
  71	 116
  72	  83
  72	  98
  72	 100
  72	 101
  72	 106
  72	 109
  72	 111
  72	 112
  72	 117
  72	 118
  73	  77
  73	  78
  73	  81
  73	  84
  73	  85
  73	  86
  73	  88
  73	  89
  73	  91
  73	  94
  73	 102
  73	 103
  73	 113
  73	 115
  73	 118
  74	  77
  74	  85
  74	  88
  74	  91
  74	  96
  74	  98
  74	 100
  74	 103
  74	 111
  74	 118
  74	 119
  75	  78
  75	  82
  75	  84
  75	  85
  75	  94
  75	  97
  75	  98
  75	  99
  75	 102
  75	 104
  75	 106
  75	 109
  75	 111
  75	 116
  75	 117
  75	 118
  76	  77
  76	  84
  76	  92
  76	  96
  76	 101
  76	 107
  76	 110
  76	 116
  76	 117
  77	  80
  77	  87
  77	  89
  77	  91
  77	  92
  77	  95
  77	  98
  77	  99
  77	 103
  77	 109
  77	 110
  77	 111
  77	 117
  78	  80
  78	  82
  78	  83
  78	  94
  78	  96
  78	 100
  78	 104
  78	 107
  78	 108
  78	 114
  79	  81
  79	  89
  79	  90
  79	  92
  79	  95
  79	  96
  79	  98
  79	 102
  79	 104
  79	 108
  79	 109
  79	 111
  79	 113
  79	 115
  79	 116
  79	 118
  79	 119
  80	  83
  80	  87
  80	  98
  80	 101
  80	 102
  80	 111
  80	 117
  81	  82
  81	  83
  81	  85
  81	  86
  81	  87
  81	  90
  81	  93
  81	  94
  81	  96
  81	 100
  81	 102
  81	 107
  81	 108
  81	 112
  81	 114
  81	 118
  82	  83
  82	  85
  82	  86
  82	  87
  82	  90
  82	  97
  82	  98
  82	 104
  82	 106
  82	 113
  82	 114
  83	  84
  83	  87
  83	  88
  83	  89
  83	  90
  83	  91
  83	  92
  83	  93
  83	  94
  83	  98
  83	 105
  83	 107
  83	 110
  84	  86
  84	  89
  84	  90
  84	  94
  84	  96
  84	  97
  84	 106
  84	 112
  84	 114
  85	  92
  85	  95
  85	 101
  85	 104
  85	 105
  85	 106
  85	 107
  85	 111
  85	 115
  85	 116
  85	 118
  86	  89
  86	  91
  86	  93
  86	  96
  86	 105
  86	 106
  86	 111
  86	 112
  86	 114
  87	  91
  87	  98
  87	 100
  87	 107
  87	 110
  87	 112
  87	 114
  87	 115
  87	 117
  88	  90
  88	  91
  88	  97
  88	  98
  88	  99
  88	 100
  88	 101
  88	 107
  88	 108
  88	 109
  88	 110
  88	 118
  88	 119
  89	  91
  89	  92
  89	  93
  89	  94
  89	  97
  89	  98
  89	 101
  89	 102
  89	 104
  89	 109
  89	 116
  89	 117
  89	 118
  89	 119
  90	  93
  90	  95
  90	  97
  90	  98
  90	 102
  90	 109
  90	 110
  90	 111
  90	 114
  90	 116
  90	 117
  90	 118
  91	  93
  91	 100
  91	 103
  91	 105
  91	 107
  91	 108
  91	 114
  91	 115
  92	  95
  92	  96
  92	 102
  92	 103
  92	 108
  92	 110
  92	 111
  93	  96
  93	 103
  93	 108
  93	 112
  93	 113
  93	 114
  93	 117
  93	 119
  94	  95
  94	  96
  94	 102
  94	 107
  94	 108
  94	 109
  94	 110
  94	 115
  94	 118
  94	 119
  95	 103
  95	 106
  95	 111
  95	 113
  95	 114
  95	 115
  95	 119
  96	  99
  96	 101
  96	 103
  96	 104
  96	 110
  96	 111
  96	 112
  96	 114
  96	 116
  97	  98
  97	  99
  97	 100
  97	 103
  97	 106
  97	 113
  97	 115
  97	 116
  97	 117
  98	 100
  98	 101
  98	 102
  98	 108
  98	 112
  99	 113
  99	 116
  99	 117
  99	 118
  99	 119
 100	 105
 100	 107
 100	 108
 100	 116
 100	 119
 101	 102
 101	 107
 101	 110
 101	 111
 101	 115
 101	 116
 101	 117
 102	 103
 102	 106
 102	 109
 102	 112
 102	 114
 103	 107
 103	 108
 103	 114
 103	 117
 103	 119
 104	 105
 104	 106
 104	 107
 104	 109
 104	 112
 104	 115
 105	 106
 105	 112
 105	 114
 105	 119
 106	 107
 106	 110
 106	 112
 107	 110
 107	 112
 107	 115
 107	 119
 108	 111
 108	 112
 108	 116
 108	 117
 109	 112
 109	 114
 109	 115
 109	 117
 109	 119
 110	 112
 110	 117
 111	 112
 111	 117
 112	 114
 112	 115
 112	 117
 112	 118
 113	 114
 113	 115
 113	 117
 113	 118
 113	 119
 114	 115
 114	 118
 115	 119
 116	 119
;
